(set-logic QF_SLIA)
(declare-fun var0 () String)
(assert (str.in_re var0 (re.++ ((_ re.loop 19 29) (re.++ (re.union (str.to_re "Bb") (re.union (str.to_re "b") (re.union (str.to_re "Om") (str.to_re "q(")))) (re.++ (re.union (str.to_re "s") (re.union (str.to_re "w") (re.union (str.to_re "#$") (str.to_re "kD")))) (re.++ (re.union (str.to_re ".F") (re.union (str.to_re "i(") (re.union (str.to_re "k0") (str.to_re "N")))) (re.union (str.to_re "!B") (re.union (str.to_re "]") (re.union (str.to_re "Zdx") (str.to_re "BL")))))))) (re.++ ((_ re.loop 3 322) (re.++ (re.union (str.to_re "w") (re.union (str.to_re "y") (re.union (str.to_re "!(") (str.to_re "K]C")))) (re.++ (re.union (str.to_re ".u") (re.union (str.to_re "M|&") (re.union (str.to_re "<X") (str.to_re "F")))) (re.++ (re.union (str.to_re "!") (re.union (str.to_re "?SG") (re.union (str.to_re "<") (str.to_re "t6")))) (re.union (str.to_re "u") (re.union (str.to_re "9") (re.union (str.to_re "tl") (str.to_re "`")))))))) (re.++ ((_ re.loop 10 644) (re.++ (re.union (str.to_re "g") (re.union (str.to_re "1") (re.union (str.to_re "~9A") (str.to_re "#")))) (re.++ (re.union (str.to_re "%}") (re.union (str.to_re "A") (re.union (str.to_re "0") (str.to_re "t*")))) (re.++ (re.union (str.to_re "iI") (re.union (str.to_re "$Ss") (re.union (str.to_re "s") (str.to_re "(")))) (re.union (str.to_re ",u") (re.union (str.to_re "9") (re.union (str.to_re "44") (str.to_re "$l")))))))) ((_ re.loop 13 317) (re.++ (re.union (str.to_re "<") (re.union (str.to_re "*") (re.union (str.to_re "Kxk") (str.to_re "D@")))) (re.++ (re.union (str.to_re "x/") (re.union (str.to_re "#") (re.union (str.to_re "P7b") (str.to_re "A")))) (re.++ (re.union (str.to_re "c2") (re.union (str.to_re ",0c") (re.union (str.to_re "6#") (str.to_re "K6")))) (re.union (str.to_re "1") (re.union (str.to_re "_") (re.union (str.to_re "2s") (str.to_re "mN")))))))))))))
(assert (not (str.in_re var0 (re.++ ((_ re.loop 11 696) (re.++ (re.union (str.to_re "w") (re.union (str.to_re "<}") (re.union (str.to_re "r") (str.to_re "0Y")))) (re.++ (re.union (str.to_re "X") (re.union (str.to_re "r") (re.union (str.to_re "GX&") (str.to_re "z>c")))) (re.++ (re.union (str.to_re "1c#") (re.union (str.to_re ",") (re.union (str.to_re "cO") (str.to_re "M")))) (re.union (str.to_re ";Q") (re.union (str.to_re "Wf3") (re.union (str.to_re "Z&") (str.to_re ";")))))))) (re.++ ((_ re.loop 15 404) (re.++ (re.union (str.to_re ".!") (re.union (str.to_re "P<W") (re.union (str.to_re "(N") (str.to_re "A")))) (re.++ (re.union (str.to_re "+Mq") (re.union (str.to_re "'f") (re.union (str.to_re "B?") (str.to_re "EE8")))) (re.++ (re.union (str.to_re "uj-") (re.union (str.to_re "!") (re.union (str.to_re "5") (str.to_re "kt%")))) (re.union (str.to_re "cp") (re.union (str.to_re "Ck") (re.union (str.to_re "UU'") (str.to_re "Mf@")))))))) (re.++ ((_ re.loop 4 78) (re.++ (re.union (str.to_re "yl") (re.union (str.to_re "q") (re.union (str.to_re "R") (str.to_re "Rv7")))) (re.++ (re.union (str.to_re "_") (re.union (str.to_re "]G4") (re.union (str.to_re "vva") (str.to_re "~")))) (re.++ (re.union (str.to_re "Tq-") (re.union (str.to_re "QNP") (re.union (str.to_re "n0") (str.to_re "Vf")))) (re.union (str.to_re "!i:") (re.union (str.to_re "Pm,") (re.union (str.to_re "*") (str.to_re "C3")))))))) ((_ re.loop 17 788) (re.++ (re.union (str.to_re "pE") (re.union (str.to_re "(") (re.union (str.to_re "@\\z") (str.to_re "A")))) (re.++ (re.union (str.to_re "/G9") (re.union (str.to_re "5") (re.union (str.to_re "X") (str.to_re "Q")))) (re.++ (re.union (str.to_re "T") (re.union (str.to_re "/)") (re.union (str.to_re ")u") (str.to_re "89\\")))) (re.union (str.to_re ",") (re.union (str.to_re "Avq") (re.union (str.to_re "$&q") (str.to_re "g|"))))))))))))))
(assert (not (str.in_re var0 (re.++ (re.* re.allchar) (re.++ (re.union (str.to_re "<") (re.union (str.to_re ">") (re.union (str.to_re "'") (re.union (str.to_re "\u0022") (str.to_re "&"))))) (re.* re.allchar))))))
(assert (<= 50 (str.len var0)))
(check-sat)
(get-model)
